\ Model p-center
\ LP format - for model browsing. Use MPS format to capture full model detail.
Minimize
  0.5 L + 0.5 eta
Subject To
 epigraph[0]: 3742.760857042642 x[0,1] + 2761.747963383043 x[0,2] - L <= 0
 epigraph[1]: 2596.67336982836 x[1,0] + 1178.790727163693 x[1,2] - L <= 0
 epigraph[2]: 1950.190996669229 x[2,0] + 1199.788155917933 x[2,1] - L <= 0
 p: y[0] + y[1] + y[2] = 1
 x<y[0,0]: x[0,0] - y[0] <= 0
 x<y[0,1]: x[0,1] - y[1] <= 0
 x<y[0,2]: x[0,2] - y[2] <= 0
 x<y[1,0]: x[1,0] - y[0] <= 0
 x<y[1,1]: x[1,1] - y[1] <= 0
 x<y[1,2]: x[1,2] - y[2] <= 0
 x<y[2,0]: x[2,0] - y[0] <= 0
 x<y[2,1]: x[2,1] - y[1] <= 0
 x<y[2,2]: x[2,2] - y[2] <= 0
 sumx[0]: x[0,0] + x[0,1] + x[0,2] = 1
 sumx[1]: x[1,0] + x[1,1] + x[1,2] = 1
 sumx[2]: x[2,0] + x[2,1] + x[2,2] = 1
 eta>k[0]: - L3[0] + eta >= 0
 eta>k[1]: - L3[1] + eta >= 0
 sumcdv<L3k[0,0]: 1509.435165103203 v[0,0,1] + 2222.958049710864 v[0,0,2]
   - L3[0] <= 0
 sumcdv<L3k[0,1]: 2722.927728985759 v[0,1,0] + 1097.355691229201 v[0,1,2]
   - L3[0] <= 0
 sumcdv<L3k[0,2]: 1414.246471024796 v[0,2,0] + 1382.022618808789 v[0,2,1]
   - L3[0] <= 0
 sumcdv<L3k[1,0]: 2144.459870033298 v[1,0,1] + 1068.533043863153 v[1,0,2]
   - L3[1] <= 0
 sumcdv<L3k[1,1]: 3097.696950110523 v[1,1,0] + 1087.756736262908 v[1,1,2]
   - L3[1] <= 0
 sumcdv<L3k[1,2]: 1566.521254960204 v[1,2,0] + 414.8584858964485 v[1,2,1]
   - L3[1] <= 0
 v<y+u[0,0,0]: - y[0] + v[0,0,0] - u[0,0] <= 0
 v<y+u[0,0,1]: - y[1] + v[0,0,1] - u[0,1] <= 0
 v<y+u[0,0,2]: - y[2] + v[0,0,2] - u[0,2] <= 0
 v<y+u[0,1,0]: - y[0] + v[0,1,0] - u[0,0] <= 0
 v<y+u[0,1,1]: - y[1] + v[0,1,1] - u[0,1] <= 0
 v<y+u[0,1,2]: - y[2] + v[0,1,2] - u[0,2] <= 0
 v<y+u[0,2,0]: - y[0] + v[0,2,0] - u[0,0] <= 0
 v<y+u[0,2,1]: - y[1] + v[0,2,1] - u[0,1] <= 0
 v<y+u[0,2,2]: - y[2] + v[0,2,2] - u[0,2] <= 0
 v<y+u[1,0,0]: - y[0] + v[1,0,0] - u[1,0] <= 0
 v<y+u[1,0,1]: - y[1] + v[1,0,1] - u[1,1] <= 0
 v<y+u[1,0,2]: - y[2] + v[1,0,2] - u[1,2] <= 0
 v<y+u[1,1,0]: - y[0] + v[1,1,0] - u[1,0] <= 0
 v<y+u[1,1,1]: - y[1] + v[1,1,1] - u[1,1] <= 0
 v<y+u[1,1,2]: - y[2] + v[1,1,2] - u[1,2] <= 0
 v<y+u[1,2,0]: - y[0] + v[1,2,0] - u[1,0] <= 0
 v<y+u[1,2,1]: - y[1] + v[1,2,1] - u[1,1] <= 0
 v<y+u[1,2,2]: - y[2] + v[1,2,2] - u[1,2] <= 0
 v<1-ak[0,0,0]: v[0,0,0] <= 0
 v<1-ak[0,0,1]: v[0,0,1] <= 1
 v<1-ak[0,0,2]: v[0,0,2] <= 1
 v<1-ak[0,1,0]: v[0,1,0] <= 0
 v<1-ak[0,1,1]: v[0,1,1] <= 1
 v<1-ak[0,1,2]: v[0,1,2] <= 1
 v<1-ak[0,2,0]: v[0,2,0] <= 0
 v<1-ak[0,2,1]: v[0,2,1] <= 1
 v<1-ak[0,2,2]: v[0,2,2] <= 1
 v<1-ak[1,0,0]: v[1,0,0] <= 0
 v<1-ak[1,0,1]: v[1,0,1] <= 1
 v<1-ak[1,0,2]: v[1,0,2] <= 1
 v<1-ak[1,1,0]: v[1,1,0] <= 0
 v<1-ak[1,1,1]: v[1,1,1] <= 1
 v<1-ak[1,1,2]: v[1,1,2] <= 1
 v<1-ak[1,2,0]: v[1,2,0] <= 0
 v<1-ak[1,2,1]: v[1,2,1] <= 1
 v<1-ak[1,2,2]: v[1,2,2] <= 1
 sumv[0,0]: v[0,0,0] + v[0,0,1] + v[0,0,2] = 1
 sumv[0,1]: v[0,1,0] + v[0,1,1] + v[0,1,2] = 1
 sumv[0,2]: v[0,2,0] + v[0,2,1] + v[0,2,2] = 1
 sumv[1,0]: v[1,0,0] + v[1,0,1] + v[1,0,2] = 1
 sumv[1,1]: v[1,1,0] + v[1,1,1] + v[1,1,2] = 1
 sumv[1,2]: v[1,2,0] + v[1,2,1] + v[1,2,2] = 1
 u+y<1[0,0]: y[0] + u[0,0] <= 1
 u+y<1[0,1]: y[1] + u[0,1] <= 1
 u+y<1[0,2]: y[2] + u[0,2] <= 1
 u+y<1[1,0]: y[0] + u[1,0] <= 1
 u+y<1[1,1]: y[1] + u[1,1] <= 1
 u+y<1[1,2]: y[2] + u[1,2] <= 1
 u+ak<1[0,0]: u[0,0] <= 0
 u+ak<1[0,1]: u[0,1] <= 1
 u+ak<1[0,2]: u[0,2] <= 1
 u+ak<1[1,0]: u[1,0] <= 0
 u+ak<1[1,1]: u[1,1] <= 1
 u+ak<1[1,2]: u[1,2] <= 1
 2S-p[0]: y[1] + y[2] + u[0,0] + u[0,1] + u[0,2] = 1
 2S-p[1]: y[1] + y[2] + u[1,0] + u[1,1] + u[1,2] = 1
Bounds
Binaries
 x[0,0] x[0,1] x[0,2] x[1,0] x[1,1] x[1,2] x[2,0] x[2,1] x[2,2] y[0] y[1]
 y[2]
End
